list_scheduling/src/v1/list_scheduling.dat
Nbj = 10;
Nbm = 5;
p = [78, 121, 116, 85, 100, 97, 109, 118, 75, 71];
s = [[2147483647, 45, 25, 70, 44, 27, 57, 26, 24, 69],[45, 2147483647, 40, 45, 21, 38, 32, 51, 49, 44],[25, 40, 2147483647, 65, 39, 22, 52, 31, 29, 64],[70, 45, 65, 2147483647, 46, 63, 33, 76, 74, 21],[44, 21, 39, 46, 2147483647, 37, 33, 50, 48, 45],[27, 38, 22, 63, 37, 2147483647, 50, 33, 31, 62],[57, 32, 52, 33, 33, 50, 2147483647, 63, 61, 32],[26, 51, 31, 76, 50, 33, 63, 2147483647, 22, 75],[24, 49, 29, 74, 48, 31, 61, 22, 2147483647, 73],[69, 44, 64, 21, 45, 62, 32, 75, 73, 2147483647]];
