list_scheduling/src/v1/list_scheduling.sol
240.9999999999997
